1 51 2
-581 -715 -863 -703 -862 -14 -920 -902 -353 -281 -449 -496 -423 -570 -35 -15 -142 -124 -859 -762 -40 -602 -496 -96 -765 -806 -452 -712 -960 -259 -839 -814 -678 -106 -259 -889 -724 -520 -46 -176 -492 -170 -669 -471 -685 -461 -832 -813 -420 -227 0 
-454 -225 -117 -204 -121 -971 -153 -118 -671 -734 -473 -491 -535 -461 -921 -904 -940 -791 -77 -266 -930 -387 -545 -966 -192 -170 -521 -302 -119 -716 -201 -172 -261 -953 -745 -113 -219 -515 -981 -743 -466 -773 -250 -476 -321 -532 -111 -246 -538 -845 0 
870 821 914 938 893 1135 890 901 991 831 848 1187 932 904 940 726 1194 987 974 988 934 958 1185 980 779 924 1007 926 960 1008 1084 926 1101 1174 844 1169 1112 980 1180 1027 1036 830 901 1118 824 1017 1068 1171 939 1181 1 
24603 
